c FILE /home/rafael/Documents/HappySet/MIHS/inputs/happygen/output/graph_d_regular_k3_p0.4_v50_20241127_082602.txt
c SOURCE This is a d-regular graph formed for the happy graph colouring problem.
c DESCRIPTION It was generated using the problem generator of Rhyd Lewis
c
c GRAPH STATS
c Seed                             = -883924678
c Number of Nodes                  = 50
c Number of colours k              = 3
c Number of pre-assignments        = 20
c Degree of all vertices           = 6
c Density                          = 0.122449
c 
c The degrees of nodes 1 to 50, respectively, are as follows 
c [6, 6, 6, 6, 6, 6, 6, 6, 6, 6, 6, 6, 6, 6, 6, 6, 6, 6, 6, 6, 6, 6, 6, 6, 6, 6, 
c  6, 6, 6, 6, 6, 6, 6, 6, 6, 6, 6, 6, 6, 6, 6, 6, 6, 6, 6, 6, 6, 6, 6, 6] 
c  
p edge 50 150 3
e 1 5
e 1 14
e 1 21
e 1 30
e 1 38
e 1 44
e 2 18
e 2 26
e 2 29
e 2 44
e 2 47
e 2 49
e 3 5
e 3 16
e 3 27
e 3 28
e 3 29
e 3 44
e 4 21
e 4 24
e 4 26
e 4 33
e 4 45
e 4 48
e 5 26
e 5 27
e 5 37
e 5 39
e 6 7
e 6 12
e 6 32
e 6 35
e 6 37
e 6 38
e 7 10
e 7 30
e 7 34
e 7 40
e 7 50
e 8 24
e 8 25
e 8 29
e 8 36
e 8 40
e 8 48
e 9 15
e 9 20
e 9 23
e 9 33
e 9 41
e 9 48
e 10 11
e 10 25
e 10 36
e 10 41
e 10 45
e 11 17
e 11 19
e 11 23
e 11 46
e 11 47
e 12 22
e 12 31
e 12 33
e 12 38
e 12 50
e 13 21
e 13 27
e 13 32
e 13 42
e 13 43
e 13 48
e 14 16
e 14 17
e 14 22
e 14 31
e 14 42
e 15 19
e 15 20
e 15 21
e 15 43
e 15 46
e 16 25
e 16 36
e 16 47
e 16 50
e 17 33
e 17 39
e 17 45
e 17 49
e 18 19
e 18 22
e 18 24
e 18 37
e 18 48
e 19 20
e 19 26
e 19 46
e 20 39
e 20 41
e 20 47
e 21 35
e 21 36
e 22 32
e 22 40
e 22 50
e 23 24
e 23 35
e 23 38
e 23 41
e 24 30
e 24 49
e 25 29
e 25 43
e 25 44
e 26 34
e 26 42
e 27 28
e 27 34
e 27 42
e 28 36
e 28 39
e 28 48
e 28 49
e 29 38
e 29 44
e 30 42
e 30 45
e 30 49
e 31 35
e 31 37
e 31 38
e 31 39
e 32 35
e 32 36
e 32 41
e 33 34
e 33 47
e 34 40
e 34 44
e 35 43
e 37 43
e 37 46
e 39 46
e 40 45
e 40 50
e 41 43
e 42 45
e 46 47
e 49 50
n 3 3
n 4 3
n 5 3
n 6 3
n 9 3
n 10 3
n 11 3
n 12 3
n 13 2
n 18 2
n 23 3
n 25 3
n 30 1
n 31 3
n 33 3
n 35 3
n 39 3
n 46 3
n 47 3
n 49 1
